squfl020-150.py
Ipopt 3.12.8: 
==> Warning: Treating 20 binary and 0 integer variables as continous.


******************************************************************************
This program contains Ipopt, a library for large-scale nonlinear optimization.
 Ipopt is released as open source code under the Eclipse Public License (EPL).
         For more information visit http://projects.coin-or.org/Ipopt
******************************************************************************

This is Ipopt version 3.12.8, running with linear solver ma27.

Number of nonzeros in equality constraint Jacobian...:     3000
Number of nonzeros in inequality constraint Jacobian.:     6000
Number of nonzeros in Lagrangian Hessian.............:     3000

Total number of variables............................:     3020
                     variables with only lower bounds:     3000
                variables with lower and upper bounds:       20
                     variables with only upper bounds:        0
Total number of equality constraints.................:      150
Total number of inequality constraints...............:     3000
        inequality constraints with only lower bounds:        0
   inequality constraints with lower and upper bounds:        0
        inequality constraints with only upper bounds:     3000

iter    objective    inf_pr   inf_du lg(mu)  ||d||  lg(rg) alpha_du alpha_pr  ls
   0  1.8216289e+01 8.00e-01 1.27e+00  -1.0 0.00e+00    -  0.00e+00 0.00e+00   0
   1  3.4140478e+02 4.44e-16 5.11e+00  -1.0 1.54e-01    -  1.54e-01 1.00e+00f  1
   2  3.8466525e+02 4.44e-16 8.59e-02  -1.0 1.19e-01    -  9.46e-01 1.00e+00f  1
   3  3.1193572e+02 3.33e-16 2.93e-01  -2.5 2.64e-01    -  5.75e-01 4.61e-01f  1
   4  2.7123676e+02 4.44e-16 5.55e-01  -2.5 1.83e-01    -  7.49e-01 4.60e-01f  1
   5  2.4782059e+02 3.33e-16 5.02e-01  -2.5 9.12e-02    -  1.00e+00 5.42e-01f  1
   6  2.3341938e+02 4.44e-16 1.08e-01  -2.5 3.84e-02    -  1.00e+00 8.37e-01f  1
   7  2.3124315e+02 4.44e-16 2.83e-08  -2.5 8.05e-03    -  1.00e+00 1.00e+00f  1
   8  2.2890691e+02 4.44e-16 2.78e-01  -3.8 3.89e-02    -  9.38e-01 4.58e-01f  1
   9  2.2724045e+02 4.44e-16 1.40e-01  -3.8 2.08e-02    -  1.00e+00 6.70e-01f  1
iter    objective    inf_pr   inf_du lg(mu)  ||d||  lg(rg) alpha_du alpha_pr  ls
  10  2.2664331e+02 4.44e-16 2.98e-02  -3.8 9.40e-03    -  1.00e+00 8.41e-01f  1
  11  2.2654201e+02 4.44e-16 1.50e-09  -3.8 2.00e-03    -  1.00e+00 1.00e+00f  1
  12  2.2639116e+02 4.44e-16 1.31e-02  -5.7 3.24e-03    -  9.89e-01 7.60e-01f  1
  13  2.2634965e+02 4.44e-16 2.15e-03  -5.7 1.28e-03    -  1.00e+00 9.31e-01f  1
  14  2.2634641e+02 4.44e-16 1.85e-11  -5.7 3.72e-04    -  1.00e+00 1.00e+00f  1
  15  2.2634415e+02 4.44e-16 1.11e-04  -8.6 1.81e-04    -  9.97e-01 9.83e-01f  1
  16  2.2634409e+02 4.44e-16 6.43e-14  -8.6 8.42e-05    -  1.00e+00 1.00e+00f  1
  17  2.2634409e+02 4.44e-16 8.91e-14  -8.6 4.09e-05    -  1.00e+00 1.00e+00f  1
  18  2.2634409e+02 4.44e-16 1.01e-13  -8.6 2.01e-05    -  1.00e+00 1.00e+00h  1
  19  2.2634409e+02 4.44e-16 4.48e-14  -9.0 1.02e-05    -  1.00e+00 1.00e+00f  1

Number of Iterations....: 19

                                   (scaled)                 (unscaled)
Objective...............:   2.2634408714562537e+02    2.2634408714562537e+02
Dual infeasibility......:   4.4781461819350892e-14    4.4781461819350892e-14
Constraint violation....:   4.4408920985006262e-16    4.4408920985006262e-16
Complementarity.........:   5.6591005648602743e-09    5.6591005648602743e-09
Overall NLP error.......:   5.6591005648602743e-09    5.6591005648602743e-09


Number of objective function evaluations             = 20
Number of objective gradient evaluations             = 20
Number of equality constraint evaluations            = 20
Number of inequality constraint evaluations          = 20
Number of equality constraint Jacobian evaluations   = 20
Number of inequality constraint Jacobian evaluations = 20
Number of Lagrangian Hessian evaluations             = 19
Total CPU secs in IPOPT (w/o function evaluations)   =      0.108
Total CPU secs in NLP function evaluations           =      0.020

EXIT: Optimal Solution Found.

Time elapsed: 0.54369187355